c 
c U(n,d) graph
c graph gen seed     : 28077
c number of vertices : 30
c max number of edges: 500
c Euclidean distance : 0.600000
c data structure     : dense
c
c           Graph Stats
c number of vertices  : 30
c nonisolated vertices: 30
c number of edges     : 236
c edge density        : 0.542529
c max degree          : 24
c avg degree          : 15.73
c min degree          : 7
p col 30 236
e 1 6
e 1 7
e 1 8
e 1 10
e 1 11
e 1 14
e 1 16
e 1 19
e 1 20
e 1 23
e 1 24
e 1 25
e 1 26
e 1 27
e 1 29
e 2 3
e 2 4
e 2 5
e 2 7
e 2 10
e 2 15
e 2 17
e 2 18
e 2 21
e 2 23
e 2 24
e 3 4
e 3 5
e 3 7
e 3 8
e 3 9
e 3 10
e 3 12
e 3 14
e 3 15
e 3 16
e 3 17
e 3 18
e 3 21
e 3 23
e 3 24
e 3 26
e 3 28
e 3 30
e 4 5
e 4 7
e 4 9
e 4 10
e 4 12
e 4 14
e 4 15
e 4 16
e 4 17
e 4 18
e 4 21
e 4 23
e 4 24
e 4 26
e 4 28
e 4 30
e 5 10
e 5 15
e 5 17
e 5 18
e 5 21
e 5 24
e 5 28
e 6 7
e 6 8
e 6 10
e 6 13
e 6 20
e 6 22
e 6 24
e 6 25
e 7 8
e 7 10
e 7 11
e 7 13
e 7 14
e 7 16
e 7 17
e 7 18
e 7 19
e 7 20
e 7 21
e 7 22
e 7 23
e 7 24
e 7 25
e 7 26
e 7 27
e 7 28
e 7 29
e 8 10
e 8 11
e 8 13
e 8 14
e 8 16
e 8 18
e 8 19
e 8 20
e 8 22
e 8 23
e 8 24
e 8 25
e 8 26
e 8 27
e 8 28
e 8 29
e 9 11
e 9 12
e 9 14
e 9 16
e 9 21
e 9 23
e 9 26
e 9 28
e 9 29
e 9 30
e 10 13
e 10 14
e 10 15
e 10 16
e 10 17
e 10 18
e 10 20
e 10 21
e 10 22
e 10 23
e 10 24
e 10 25
e 10 26
e 10 27
e 10 28
e 10 29
e 11 12
e 11 14
e 11 16
e 11 19
e 11 23
e 11 25
e 11 26
e 11 27
e 11 28
e 11 29
e 11 30
e 12 14
e 12 16
e 12 21
e 12 23
e 12 26
e 12 28
e 12 29
e 12 30
e 13 18
e 13 20
e 13 22
e 13 24
e 14 15
e 14 16
e 14 17
e 14 18
e 14 19
e 14 21
e 14 23
e 14 24
e 14 25
e 14 26
e 14 27
e 14 28
e 14 29
e 14 30
e 15 17
e 15 18
e 15 21
e 15 23
e 15 24
e 15 28
e 16 19
e 16 20
e 16 21
e 16 23
e 16 24
e 16 25
e 16 26
e 16 27
e 16 28
e 16 29
e 16 30
e 17 18
e 17 21
e 17 23
e 17 24
e 17 28
e 17 30
e 18 21
e 18 23
e 18 24
e 18 28
e 19 23
e 19 25
e 19 26
e 19 27
e 19 28
e 19 29
e 20 22
e 20 24
e 20 25
e 21 23
e 21 24
e 21 28
e 21 30
e 22 24
e 23 24
e 23 25
e 23 26
e 23 27
e 23 28
e 23 29
e 23 30
e 24 25
e 24 26
e 24 28
e 25 26
e 25 27
e 25 29
e 26 27
e 26 28
e 26 29
e 26 30
e 27 28
e 27 29
e 28 29
e 28 30
e 29 30
